100
273  72
423 428
509 426
512 520
112 453
 54 231
266 220
168 365
180 359
 87 286
315 103
457 520
221 324
464 403
549 134
 10 346
152 450
257 341
354 149
371 590
430 347
428 526
384 133
246 409
 53 276
 51 442
138 393
427 411
589 215
493 289
438 334
392 357
 58 181
311 353
165 248
130 202
261 383
165 315
595 303
507 368
 56 367
394 513
188 445
211 223
513 234
256 513
195 110
379 268
419 230
382 174
523 491
171  31
168 293
 97 149
 24 366
 58 232
147 473
458 267
276  51
330 499
516 226
534 337
186 494
297 259
339 125
456 279
301 341
241 551
504 194
300 163
559 243
542 164
 99 367
404 278
195  96
361 415
233  74
343 338
484 122
 81 430
 40 429
266  10
 86 336
468 344
171 542
578 403
539 180
335 362
416 512
313 257
322 295
233 419
260 462
 49 445
208 270
466 260
575 269
349 109
543 328
396 185